\ File written by Highs .lp filereader
min
 obj: +1 x0 +1 x1 +1 x2 +1 x3 +1 x4 +1 x5 +1 x6 +1 x7 +1 x8 
st
 con0lo: +1 x0 +1 x1 +1 x2 +1 x3 +1 x6 >= +1
 con1lo: +1 x0 +1 x1 +1 x2 +1 x4 +1 x7 >= +1
 con2lo: +1 x0 +1 x1 +1 x2 +1 x5 +1 x8 >= +1
 con3lo: +1 x0 +1 x3 +1 x4 +1 x5 +1 x6 >= +1
 con4lo: +1 x1 +1 x3 +1 x4 +1 x5 +1 x7 >= +1
 con5lo: +1 x2 +1 x3 +1 x4 +1 x5 +1 x8 >= +1
 con6lo: +1 x0 +1 x3 +1 x6 +1 x7 +1 x8 >= +1
 con7lo: +1 x1 +1 x4 +1 x6 +1 x7 +1 x8 >= +1
 con8lo: +1 x2 +1 x5 +1 x6 +1 x7 +1 x8 >= +1
 con9lo: +4 x0 +4 x1 +4 x2 +4 x3 +4 x4 +4 x5 +4 x6 +4 x7 +4 x8 >= +8
 con10lo: +1 x0 +2 x1 +2 x2 +2 x3 +2 x4 +2 x5 +2 x6 +2 x7 +2 x8 >= +4
 con11lo: +3 x0 +4 x1 +4 x2 +4 x3 +4 x4 +4 x5 +4 x6 +4 x7 +4 x8 >= +8
 con12lo: +2 x0 +3 x1 +3 x2 +3 x3 +3 x4 +3 x5 +3 x6 +3 x7 +3 x8 >= +6
 con13lo: +4 x0 +4 x1 +3 x2 +4 x3 +4 x4 +4 x5 +4 x6 +4 x7 +4 x8 >= +8
 con14lo: +3 x0 +4 x1 +5 x2 +4 x3 +4 x4 +5 x5 +4 x6 +4 x7 +5 x8 >= +9
 con15lo: +7 x0 +6 x1 +6 x2 +7 x3 +6 x4 +6 x5 +7 x6 +6 x7 +6 x8 >= +13
 con16lo: +4 x0 +3 x1 +3 x2 +4 x3 +3 x4 +3 x5 +4 x6 +3 x7 +3 x8 >= +7
 con17lo: +8 x0 +7 x1 +7 x2 +8 x3 +7 x4 +7 x5 +8 x6 +7 x7 +7 x8 >= +15
 con18lo: +7 x0 +7 x1 +7 x2 +7 x3 +7 x4 +7 x5 +7 x6 +8 x7 +7 x8 >= +15
 con19lo: +8 x0 +7 x1 +7 x2 +8 x3 +7 x4 +7 x5 +8 x6 +7 x7 +7 x8 >= +15
 con20lo: +9 x0 +8 x1 +8 x2 +9 x3 +8 x4 +8 x5 +9 x6 +8 x7 +8 x8 >= +17
 con21lo: +5 x0 +4 x1 +4 x2 +5 x3 +4 x4 +4 x5 +5 x6 +4 x7 +4 x8 >= +9
 con22lo: +9 x0 +8 x1 +8 x2 +9 x3 +8 x4 +8 x5 +9 x6 +8 x7 +8 x8 >= +17
 con23lo: +6 x0 +5 x1 +5 x2 +6 x3 +5 x4 +5 x5 +6 x6 +5 x7 +5 x8 >= +11
 con24lo: +4 x0 +3 x1 +3 x2 +4 x3 +3 x4 +3 x5 +4 x6 +3 x7 +3 x8 >= +7
 con25lo: +9 x0 +9 x1 +9 x2 +9 x3 +9 x4 +9 x5 +9 x6 +9 x7 +9 x8 >= +19
bounds
 +0 <= x0 <= +1
 +0 <= x1 <= +1
 +0 <= x2 <= +1
 +0 <= x3 <= +1
 +0 <= x4 <= +1
 +0 <= x5 <= +1
 +0 <= x6 <= +1
 +0 <= x7 <= +1
 +0 <= x8 <= +1
end
